NAME: CMT5_4
TYPE: CVRP
COMMENT: 1291.29 - Cluster Nr.4
DIMENSION: 12
CAPACITY: 200
EDGE_WEIGHT_TYPE: EUC_2D
NODE_COORD_TYPE: TWOD_COORDS
NODE_COORD_SECTION: 
4 17 34
1 14 37
6 12 42
12 10 43
5 20 40
9 12 38
7 7 38
3 21 36
10 35 35
11 6 38
2 7 43
8 17 33
DEPOT_SECTION: 
10
-1
DEMAND_SECTION: 
12 9
4 3
6 21
9 5
11 16
10 0
5 12
8 41
7 28
1 11
3 19
2 27
EOF
